NAME : portcgen-22-28
COMMENT : portcgen N=22, seed=28
TYPE : TSP
DIMENSION : 22
EDGE_WEIGHT_TYPE : EUC_2D
NODE_COORD_SECTION
1 150554 -110750
2 237529 -212037
3 -199768 360315
4 -117322 80085
5 -160816 -27287
6 -428235 -113840
7 238868 -241249
8 -17055 419983
9 54029 226203
10 -225632 351443
11 -36227 87056
12 285354 -351635
13 351650 -195355
14 -207004 -169530
15 -6281 -7190
16 206547 -219047
17 228574 -6763
18 -167434 -170344
19 -92452 -142309
20 423609 -30267
21 256776 29074
22 -143059 8771
